(set-logic QF_LIA)
(declare-fun x0 () Int)
(declare-fun x1 () Int)
(declare-fun x2 () Int)
(declare-fun x3 () Int)
(declare-fun x4 () Int)
(declare-fun x5 () Int)
(declare-fun x6 () Int)
(declare-fun x7 () Int)
(declare-fun x8 () Int)
(declare-fun x9 () Int)
(declare-fun A0 () Bool)
(declare-fun A1 () Bool)
(declare-fun A2 () Bool)
(declare-fun A3 () Bool)
(declare-fun A4 () Bool)
(declare-fun A5 () Bool)
(declare-fun A6 () Bool)
(declare-fun A7 () Bool)
(declare-fun A8 () Bool)
(declare-fun A9 () Bool)
(assert (let ((.def_0 (* 1 x1))) (let ((.def_1 (< .def_0 1))) (let ((.def_2 (not .def_1))) (let ((.def_3 (not A5))) (let ((.def_4 (or .def_3 .def_2))) (let ((.def_5 (not .def_4))) (let ((.def_6 (not A2))) (let ((.def_7 (or .def_6 A8))) (let ((.def_8 (not .def_7))) (let ((.def_9 (or .def_8 .def_5))) (let ((.def_10 (not .def_9))) (let ((.def_11 (not A3))) (let ((.def_12 (not A7))) (let ((.def_13 (or .def_12 .def_11))) (let ((.def_14 (* 1 x8))) (let ((.def_15 (< .def_14 1))) (let ((.def_16 (* (- 1) x5))) (let ((.def_17 (+ .def_0 .def_16))) (let ((.def_18 (< .def_17 (- 1)))) (let ((.def_19 (not .def_18))) (let ((.def_20 (or .def_19 .def_15))) (let ((.def_21 (or .def_20 .def_13))) (let ((.def_22 (and .def_21 .def_10))) (let ((.def_23 (not .def_22))) (let ((.def_24 (* 1 x3))) (let ((.def_25 (< .def_24 (- 1)))) (let ((.def_26 (not .def_25))) (let ((.def_27 (and A8 .def_26))) (let ((.def_28 (not .def_27))) (let ((.def_29 (or A6 .def_26))) (let ((.def_30 (not .def_29))) (let ((.def_31 (or .def_30 .def_28))) (let ((.def_32 (not .def_31))) (let ((.def_33 (not A8))) (let ((.def_34 (and .def_33 A6))) (let ((.def_35 (not .def_34))) (let ((.def_36 (= A8 A7))) (let ((.def_37 (or .def_36 .def_35))) (let ((.def_38 (not .def_37))) (let ((.def_39 (or .def_38 .def_32))) (let ((.def_40 (or .def_39 .def_23))) (let ((.def_41 (* (- 1) x9))) (let ((.def_42 (* 1 x7))) (let ((.def_43 (+ .def_42 .def_41))) (let ((.def_44 (< .def_43 1))) (let ((.def_45 (not .def_44))) (let ((.def_46 (and A9 .def_45))) (let ((.def_47 (not .def_46))) (let ((.def_48 (* 1 x5))) (let ((.def_49 (< .def_48 1))) (let ((.def_50 (not .def_49))) (let ((.def_51 (< .def_42 1))) (let ((.def_52 (or .def_51 .def_50))) (let ((.def_53 (not .def_52))) (let ((.def_54 (and .def_53 .def_47))) (let ((.def_55 (not A6))) (let ((.def_56 (* 1 x9))) (let ((.def_57 (< .def_56 1))) (let ((.def_58 (and .def_57 .def_55))) (let ((.def_59 (not .def_58))) (let ((.def_60 (* 1 x4))) (let ((.def_61 (< .def_60 1))) (let ((.def_62 (or .def_6 .def_61))) (let ((.def_63 (not .def_62))) (let ((.def_64 (or .def_63 .def_59))) (let ((.def_65 (and .def_64 .def_54))) (let ((.def_66 (not .def_65))) (let ((.def_67 (* (- 1) x2))) (let ((.def_68 (* (- 1) x4))) (let ((.def_69 (+ .def_68 .def_67))) (let ((.def_70 (< .def_69 1))) (let ((.def_71 (not .def_70))) (let ((.def_72 (* 1 x6))) (let ((.def_73 (* (- 1) x7))) (let ((.def_74 (+ .def_73 .def_72))) (let ((.def_75 (< .def_74 (- 1)))) (let ((.def_76 (not .def_75))) (let ((.def_77 (or .def_76 .def_71))) (let ((.def_78 (* 1 x2))) (let ((.def_79 (< .def_78 (- 1)))) (let ((.def_80 (not .def_79))) (let ((.def_81 (+ .def_48 .def_67))) (let ((.def_82 (< .def_81 1))) (let ((.def_83 (or .def_82 .def_80))) (let ((.def_84 (not .def_83))) (let ((.def_85 (and .def_84 .def_77))) (let ((.def_86 (not .def_85))) (let ((.def_87 (* (- 1) x6))) (let ((.def_88 (< .def_87 (- 1)))) (let ((.def_89 (not .def_88))) (let ((.def_90 (or A3 .def_89))) (let ((.def_91 (not .def_57))) (let ((.def_92 (or .def_91 .def_33))) (let ((.def_93 (= .def_92 .def_90))) (let ((.def_94 (and .def_93 .def_86))) (let ((.def_95 (or .def_94 .def_66))) (let ((.def_96 (not .def_95))) (let ((.def_97 (and .def_96 .def_40))) (let ((.def_98 (* (- 1) x8))) (let ((.def_99 (< .def_98 1))) (let ((.def_100 (not .def_99))) (let ((.def_101 (not .def_15))) (let ((.def_102 (or .def_101 .def_100))) (let ((.def_103 (not .def_102))) (let ((.def_104 (and A1 .def_3))) (let ((.def_105 (not .def_104))) (let ((.def_106 (or .def_105 .def_103))) (let ((.def_107 (< .def_68 (- 1)))) (let ((.def_108 (+ .def_73 .def_78))) (let ((.def_109 (< .def_108 (- 1)))) (let ((.def_110 (= .def_109 .def_107))) (let ((.def_111 (< .def_67 (- 1)))) (let ((.def_112 (not .def_111))) (let ((.def_113 (and A2 .def_112))) (let ((.def_114 (not .def_113))) (let ((.def_115 (and .def_114 .def_110))) (let ((.def_116 (not .def_115))) (let ((.def_117 (or .def_116 .def_106))) (let ((.def_118 (not .def_117))) (let ((.def_119 (+ .def_87 .def_14))) (let ((.def_120 (< .def_119 1))) (let ((.def_121 (or .def_50 .def_120))) (let ((.def_122 (not .def_121))) (let ((.def_123 (or .def_33 A8))) (let ((.def_124 (not .def_123))) (let ((.def_125 (or .def_124 .def_122))) (let ((.def_126 (not A4))) (let ((.def_127 (+ .def_14 .def_56))) (let ((.def_128 (< .def_127 1))) (let ((.def_129 (not .def_128))) (let ((.def_130 (or .def_129 .def_126))) (let ((.def_131 (not .def_130))) (let ((.def_132 (or A8 .def_3))) (let ((.def_133 (not .def_132))) (let ((.def_134 (or .def_133 .def_131))) (let ((.def_135 (not .def_134))) (let ((.def_136 (or .def_135 .def_125))) (let ((.def_137 (or .def_136 .def_118))) (let ((.def_138 (and A2 .def_1))) (let ((.def_139 (not .def_138))) (let ((.def_140 (or A4 .def_33))) (let ((.def_141 (or .def_140 .def_139))) (let ((.def_142 (* (- 1) x0))) (let ((.def_143 (< .def_142 1))) (let ((.def_144 (not .def_143))) (let ((.def_145 (or .def_144 A6))) (let ((.def_146 (not A1))) (let ((.def_147 (and .def_146 .def_126))) (let ((.def_148 (and .def_147 .def_145))) (let ((.def_149 (and .def_148 .def_141))) (let ((.def_150 (not .def_149))) (let ((.def_151 (* (- 1) x3))) (let ((.def_152 (+ .def_151 .def_42))) (let ((.def_153 (< .def_152 1))) (let ((.def_154 (= .def_153 .def_143))) (let ((.def_155 (< .def_41 (- 1)))) (let ((.def_156 (< .def_16 (- 1)))) (let ((.def_157 (and .def_156 .def_155))) (let ((.def_158 (not .def_157))) (let ((.def_159 (= .def_158 .def_154))) (let ((.def_160 (not .def_159))) (let ((.def_161 (+ .def_73 .def_41))) (let ((.def_162 (< .def_161 1))) (let ((.def_163 (not .def_162))) (let ((.def_164 (+ .def_42 .def_60))) (let ((.def_165 (< .def_164 1))) (let ((.def_166 (not .def_165))) (let ((.def_167 (and .def_166 .def_163))) (let ((.def_168 (not .def_167))) (let ((.def_169 (not A0))) (let ((.def_170 (and .def_169 .def_12))) (let ((.def_171 (not .def_170))) (let ((.def_172 (and .def_171 .def_168))) (let ((.def_173 (and .def_172 .def_160))) (let ((.def_174 (and .def_173 .def_150))) (let ((.def_175 (or .def_174 .def_137))) (let ((.def_176 (and .def_175 .def_97))) (let ((.def_177 (not .def_176))) (let ((.def_178 (< .def_72 1))) (let ((.def_179 (not .def_178))) (let ((.def_180 (and A1 .def_179))) (let ((.def_181 (not .def_180))) (let ((.def_182 (+ .def_16 .def_41))) (let ((.def_183 (< .def_182 (- 1)))) (let ((.def_184 (or .def_183 .def_99))) (let ((.def_185 (or .def_184 .def_181))) (let ((.def_186 (or .def_101 A9))) (let ((.def_187 (not .def_186))) (let ((.def_188 (* 1 x0))) (let ((.def_189 (+ .def_87 .def_188))) (let ((.def_190 (< .def_189 (- 1)))) (let ((.def_191 (< .def_73 (- 1)))) (let ((.def_192 (not .def_191))) (let ((.def_193 (and .def_192 .def_190))) (let ((.def_194 (and .def_193 .def_187))) (let ((.def_195 (and .def_194 .def_185))) (let ((.def_196 (not .def_195))) (let ((.def_197 (+ .def_142 .def_72))) (let ((.def_198 (< .def_197 1))) (let ((.def_199 (not .def_198))) (let ((.def_200 (or .def_199 A5))) (let ((.def_201 (not .def_200))) (let ((.def_202 (+ .def_42 .def_98))) (let ((.def_203 (< .def_202 1))) (let ((.def_204 (or .def_203 .def_178))) (let ((.def_205 (or .def_204 .def_201))) (let ((.def_206 (< .def_48 (- 1)))) (let ((.def_207 (not .def_206))) (let ((.def_208 (and .def_207 .def_3))) (let ((.def_209 (not .def_208))) (let ((.def_210 (+ .def_14 .def_78))) (let ((.def_211 (< .def_210 (- 1)))) (let ((.def_212 (and .def_211 .def_11))) (let ((.def_213 (and .def_212 .def_209))) (let ((.def_214 (not .def_213))) (let ((.def_215 (and .def_214 .def_205))) (let ((.def_216 (not .def_215))) (let ((.def_217 (or .def_216 .def_196))) (let ((.def_218 (and A4 .def_169))) (let ((.def_219 (and .def_33 .def_6))) (let ((.def_220 (not .def_219))) (let ((.def_221 (or .def_220 .def_218))) (let ((.def_222 (not .def_221))) (let ((.def_223 (or A7 A7))) (let ((.def_224 (not .def_223))) (let ((.def_225 (or A2 .def_55))) (let ((.def_226 (not .def_225))) (let ((.def_227 (or .def_226 .def_224))) (let ((.def_228 (= .def_227 .def_222))) (let ((.def_229 (< .def_0 (- 1)))) (let ((.def_230 (not .def_229))) (let ((.def_231 (and .def_230 A1))) (let ((.def_232 (not .def_231))) (let ((.def_233 (< .def_151 (- 1)))) (let ((.def_234 (+ .def_67 .def_73))) (let ((.def_235 (< .def_234 1))) (let ((.def_236 (not .def_235))) (let ((.def_237 (or .def_236 .def_233))) (let ((.def_238 (not .def_237))) (let ((.def_239 (and .def_238 .def_232))) (let ((.def_240 (or .def_101 .def_155))) (let ((.def_241 (+ .def_41 .def_67))) (let ((.def_242 (< .def_241 1))) (let ((.def_243 (or .def_242 .def_11))) (let ((.def_244 (or .def_243 .def_240))) (let ((.def_245 (and .def_244 .def_239))) (let ((.def_246 (not .def_245))) (let ((.def_247 (or .def_246 .def_228))) (let ((.def_248 (not .def_247))) (let ((.def_249 (or .def_248 .def_217))) (let ((.def_250 (not .def_249))) (let ((.def_251 (= A9 A8))) (let ((.def_252 (not .def_251))) (let ((.def_253 (< .def_67 1))) (let ((.def_254 (or .def_253 .def_146))) (let ((.def_255 (not .def_254))) (let ((.def_256 (and .def_255 .def_252))) (let ((.def_257 (and A5 .def_25))) (let ((.def_258 (not .def_257))) (let ((.def_259 (and A5 A2))) (let ((.def_260 (and .def_259 .def_258))) (let ((.def_261 (not .def_260))) (let ((.def_262 (or .def_261 .def_256))) (let ((.def_263 (and .def_169 .def_146))) (let ((.def_264 (not .def_263))) (let ((.def_265 (and .def_230 .def_2))) (let ((.def_266 (not .def_265))) (let ((.def_267 (and .def_266 .def_264))) (let ((.def_268 (not .def_267))) (let ((.def_269 (not .def_156))) (let ((.def_270 (+ .def_73 .def_56))) (let ((.def_271 (< .def_270 1))) (let ((.def_272 (and .def_271 .def_269))) (let ((.def_273 (and .def_33 .def_33))) (let ((.def_274 (not .def_273))) (let ((.def_275 (and .def_274 .def_272))) (let ((.def_276 (not .def_275))) (let ((.def_277 (and .def_276 .def_268))) (let ((.def_278 (not .def_277))) (let ((.def_279 (and .def_278 .def_262))) (let ((.def_280 (< .def_87 1))) (let ((.def_281 (not .def_280))) (let ((.def_282 (and A8 .def_281))) (let ((.def_283 (+ .def_72 .def_0))) (let ((.def_284 (< .def_283 (- 1)))) (let ((.def_285 (or .def_107 .def_284))) (let ((.def_286 (or .def_285 .def_282))) (let ((.def_287 (not .def_286))) (let ((.def_288 (or .def_146 .def_169))) (let ((.def_289 (not .def_288))) (let ((.def_290 (+ .def_68 .def_142))) (let ((.def_291 (< .def_290 1))) (let ((.def_292 (not .def_291))) (let ((.def_293 (or .def_292 .def_146))) (let ((.def_294 (not .def_293))) (let ((.def_295 (and .def_294 .def_289))) (let ((.def_296 (and .def_295 .def_287))) (let ((.def_297 (+ .def_14 .def_0))) (let ((.def_298 (< .def_297 1))) (let ((.def_299 (not .def_298))) (let ((.def_300 (or .def_146 .def_299))) (let ((.def_301 (< .def_73 1))) (let ((.def_302 (or .def_301 A5))) (let ((.def_303 (and .def_302 .def_300))) (let ((.def_304 (not .def_303))) (let ((.def_305 (+ .def_67 .def_42))) (let ((.def_306 (< .def_305 (- 1)))) (let ((.def_307 (or .def_33 .def_306))) (let ((.def_308 (or A3 .def_11))) (let ((.def_309 (and .def_308 .def_307))) (let ((.def_310 (and .def_309 .def_304))) (let ((.def_311 (and .def_310 .def_296))) (let ((.def_312 (and .def_311 .def_279))) (let ((.def_313 (and .def_312 .def_250))) (let ((.def_314 (not .def_313))) (let ((.def_315 (or .def_314 .def_177))) (let ((.def_316 (not .def_315))) (let ((.def_317 (not A9))) (let ((.def_318 (and .def_317 A7))) (let ((.def_319 (and .def_317 .def_33))) (let ((.def_320 (not .def_319))) (let ((.def_321 (and .def_320 .def_318))) (let ((.def_322 (+ .def_73 .def_188))) (let ((.def_323 (< .def_322 1))) (let ((.def_324 (and .def_146 .def_323))) (let ((.def_325 (not .def_324))) (let ((.def_326 (= A9 .def_33))) (let ((.def_327 (or .def_326 .def_325))) (let ((.def_328 (or .def_327 .def_321))) (let ((.def_329 (< .def_210 1))) (let ((.def_330 (not .def_329))) (let ((.def_331 (and .def_330 .def_11))) (let ((.def_332 (or .def_3 .def_317))) (let ((.def_333 (not .def_332))) (let ((.def_334 (or .def_333 .def_331))) (let ((.def_335 (* (- 1) x1))) (let ((.def_336 (+ .def_335 .def_78))) (let ((.def_337 (< .def_336 (- 1)))) (let ((.def_338 (not .def_337))) (let ((.def_339 (or .def_338 .def_169))) (let ((.def_340 (or A0 .def_3))) (let ((.def_341 (and .def_340 .def_339))) (let ((.def_342 (not .def_341))) (let ((.def_343 (or .def_342 .def_334))) (let ((.def_344 (not .def_343))) (let ((.def_345 (and .def_344 .def_328))) (let ((.def_346 (not .def_345))) (let ((.def_347 (and .def_146 A8))) (let ((.def_348 (< .def_98 (- 1)))) (let ((.def_349 (or .def_348 A4))) (let ((.def_350 (or .def_349 .def_347))) (let ((.def_351 (not .def_350))) (let ((.def_352 (or A4 .def_269))) (let ((.def_353 (not .def_352))) (let ((.def_354 (not .def_347))) (let ((.def_355 (and .def_354 .def_353))) (let ((.def_356 (not .def_355))) (let ((.def_357 (or .def_356 .def_351))) (let ((.def_358 (not .def_357))) (let ((.def_359 (+ .def_142 .def_151))) (let ((.def_360 (< .def_359 (- 1)))) (let ((.def_361 (not .def_360))) (let ((.def_362 (= .def_361 .def_126))) (let ((.def_363 (not .def_362))) (let ((.def_364 (+ .def_67 .def_87))) (let ((.def_365 (< .def_364 (- 1)))) (let ((.def_366 (= .def_55 .def_365))) (let ((.def_367 (not .def_366))) (let ((.def_368 (or .def_367 .def_363))) (let ((.def_369 (not .def_368))) (let ((.def_370 (= A7 A4))) (let ((.def_371 (+ .def_335 .def_56))) (let ((.def_372 (< .def_371 1))) (let ((.def_373 (and .def_372 A3))) (let ((.def_374 (not .def_373))) (let ((.def_375 (or .def_374 .def_370))) (let ((.def_376 (= .def_375 .def_369))) (let ((.def_377 (not .def_376))) (let ((.def_378 (and .def_377 .def_358))) (let ((.def_379 (not .def_378))) (let ((.def_380 (= .def_379 .def_346))) (let ((.def_381 (not .def_380))) (let ((.def_382 (and .def_206 .def_155))) (let ((.def_383 (< .def_14 (- 1)))) (let ((.def_384 (and .def_383 A4))) (let ((.def_385 (not .def_384))) (let ((.def_386 (and .def_385 .def_382))) (let ((.def_387 (+ .def_41 .def_16))) (let ((.def_388 (< .def_387 1))) (let ((.def_389 (not .def_388))) (let ((.def_390 (and .def_55 .def_389))) (let ((.def_391 (not .def_390))) (let ((.def_392 (and A4 .def_49))) (let ((.def_393 (not .def_392))) (let ((.def_394 (and .def_393 .def_391))) (let ((.def_395 (not .def_394))) (let ((.def_396 (or .def_395 .def_386))) (let ((.def_397 (not .def_396))) (let ((.def_398 (+ .def_14 .def_42))) (let ((.def_399 (< .def_398 (- 1)))) (let ((.def_400 (not .def_399))) (let ((.def_401 (or .def_400 A3))) (let ((.def_402 (not .def_401))) (let ((.def_403 (+ .def_98 .def_151))) (let ((.def_404 (< .def_403 1))) (let ((.def_405 (not .def_404))) (let ((.def_406 (or .def_405 .def_11))) (let ((.def_407 (and .def_406 .def_402))) (let ((.def_408 (not .def_407))) (let ((.def_409 (+ .def_188 .def_98))) (let ((.def_410 (< .def_409 1))) (let ((.def_411 (not .def_410))) (let ((.def_412 (and .def_301 .def_411))) (let ((.def_413 (not .def_412))) (let ((.def_414 (< .def_16 1))) (let ((.def_415 (+ .def_60 .def_188))) (let ((.def_416 (< .def_415 1))) (let ((.def_417 (or .def_416 .def_414))) (let ((.def_418 (not .def_417))) (let ((.def_419 (or .def_418 .def_413))) (let ((.def_420 (or .def_419 .def_408))) (let ((.def_421 (or .def_420 .def_397))) (let ((.def_422 (not .def_421))) (let ((.def_423 (and .def_12 A5))) (let ((.def_424 (not .def_423))) (let ((.def_425 (or A5 .def_414))) (let ((.def_426 (or .def_425 .def_424))) (let ((.def_427 (+ .def_41 .def_60))) (let ((.def_428 (< .def_427 (- 1)))) (let ((.def_429 (and .def_428 .def_207))) (let ((.def_430 (< .def_68 1))) (let ((.def_431 (and .def_11 .def_430))) (let ((.def_432 (not .def_431))) (let ((.def_433 (and .def_432 .def_429))) (let ((.def_434 (or .def_433 .def_426))) (let ((.def_435 (+ .def_68 .def_16))) (let ((.def_436 (< .def_435 (- 1)))) (let ((.def_437 (and .def_436 A4))) (let ((.def_438 (or .def_6 .def_111))) (let ((.def_439 (not .def_438))) (let ((.def_440 (and .def_439 .def_437))) (let ((.def_441 (+ .def_67 .def_48))) (let ((.def_442 (< .def_441 (- 1)))) (let ((.def_443 (not .def_442))) (let ((.def_444 (or .def_207 .def_443))) (let ((.def_445 (+ .def_142 .def_56))) (let ((.def_446 (< .def_445 (- 1)))) (let ((.def_447 (not .def_446))) (let ((.def_448 (or .def_447 .def_55))) (let ((.def_449 (and .def_448 .def_444))) (let ((.def_450 (not .def_449))) (let ((.def_451 (or .def_450 .def_440))) (let ((.def_452 (not .def_451))) (let ((.def_453 (= .def_452 .def_434))) (let ((.def_454 (or .def_453 .def_422))) (let ((.def_455 (and .def_454 .def_381))) (let ((.def_456 (+ .def_68 .def_73))) (let ((.def_457 (< .def_456 (- 1)))) (let ((.def_458 (< .def_435 1))) (let ((.def_459 (not .def_458))) (let ((.def_460 (or .def_459 .def_457))) (let ((.def_461 (not .def_460))) (let ((.def_462 (< .def_108 1))) (let ((.def_463 (not .def_462))) (let ((.def_464 (and .def_233 .def_463))) (let ((.def_465 (not .def_464))) (let ((.def_466 (or .def_465 .def_461))) (let ((.def_467 (or .def_50 .def_329))) (let ((.def_468 (not .def_467))) (let ((.def_469 (or .def_126 A6))) (let ((.def_470 (or .def_469 .def_468))) (let ((.def_471 (not .def_470))) (let ((.def_472 (and .def_471 .def_466))) (let ((.def_473 (+ .def_56 .def_48))) (let ((.def_474 (< .def_473 1))) (let ((.def_475 (not .def_474))) (let ((.def_476 (and A0 .def_475))) (let ((.def_477 (not .def_476))) (let ((.def_478 (and .def_156 .def_169))) (let ((.def_479 (= .def_478 .def_477))) (let ((.def_480 (not .def_479))) (let ((.def_481 (and .def_317 A3))) (let ((.def_482 (not .def_481))) (let ((.def_483 (and .def_33 .def_55))) (let ((.def_484 (not .def_483))) (let ((.def_485 (and .def_484 .def_482))) (let ((.def_486 (not .def_485))) (let ((.def_487 (and .def_486 .def_480))) (let ((.def_488 (or .def_487 .def_472))) (let ((.def_489 (or A9 .def_91))) (let ((.def_490 (not .def_489))) (let ((.def_491 (< .def_72 (- 1)))) (let ((.def_492 (not .def_61))) (let ((.def_493 (or .def_492 .def_491))) (let ((.def_494 (or .def_493 .def_490))) (let ((.def_495 (or .def_146 A8))) (let ((.def_496 (or .def_33 .def_11))) (let ((.def_497 (not .def_496))) (let ((.def_498 (or .def_497 .def_495))) (let ((.def_499 (= .def_498 .def_494))) (let ((.def_500 (not .def_499))) (let ((.def_501 (+ .def_16 .def_98))) (let ((.def_502 (< .def_501 1))) (let ((.def_503 (not .def_502))) (let ((.def_504 (and .def_503 .def_33))) (let ((.def_505 (+ .def_78 .def_42))) (let ((.def_506 (< .def_505 1))) (let ((.def_507 (not .def_506))) (let ((.def_508 (or .def_507 A1))) (let ((.def_509 (not .def_508))) (let ((.def_510 (or .def_509 .def_504))) (let ((.def_511 (not .def_510))) (let ((.def_512 (or .def_6 A2))) (let ((.def_513 (not .def_512))) (let ((.def_514 (+ .def_41 .def_188))) (let ((.def_515 (< .def_514 1))) (let ((.def_516 (not .def_515))) (let ((.def_517 (and .def_516 .def_11))) (let ((.def_518 (not .def_517))) (let ((.def_519 (or .def_518 .def_513))) (let ((.def_520 (or .def_519 .def_511))) (let ((.def_521 (= .def_520 .def_500))) (let ((.def_522 (not .def_521))) (let ((.def_523 (and .def_522 .def_488))) (let ((.def_524 (or A3 A8))) (let ((.def_525 (+ .def_24 .def_72))) (let ((.def_526 (< .def_525 (- 1)))) (let ((.def_527 (and .def_12 .def_526))) (let ((.def_528 (and .def_527 .def_524))) (let ((.def_529 (+ .def_142 .def_14))) (let ((.def_530 (< .def_529 (- 1)))) (let ((.def_531 (not .def_530))) (let ((.def_532 (and .def_531 .def_179))) (let ((.def_533 (not .def_532))) (let ((.def_534 (or A4 A4))) (let ((.def_535 (and .def_534 .def_533))) (let ((.def_536 (or .def_535 .def_528))) (let ((.def_537 (not .def_536))) (let ((.def_538 (+ .def_24 .def_56))) (let ((.def_539 (< .def_538 1))) (let ((.def_540 (not .def_539))) (let ((.def_541 (= .def_540 .def_49))) (let ((.def_542 (not .def_541))) (let ((.def_543 (+ .def_48 .def_60))) (let ((.def_544 (< .def_543 1))) (let ((.def_545 (< .def_202 (- 1)))) (let ((.def_546 (not .def_545))) (let ((.def_547 (and .def_546 .def_544))) (let ((.def_548 (or .def_547 .def_542))) (let ((.def_549 (not .def_548))) (let ((.def_550 (and .def_12 A7))) (let ((.def_551 (and A1 .def_156))) (let ((.def_552 (and .def_551 .def_550))) (let ((.def_553 (and .def_552 .def_549))) (let ((.def_554 (= .def_553 .def_537))) (let ((.def_555 (not .def_554))) (let ((.def_556 (not .def_155))) (let ((.def_557 (and .def_146 .def_556))) (let ((.def_558 (not .def_557))) (let ((.def_559 (+ .def_72 .def_68))) (let ((.def_560 (< .def_559 1))) (let ((.def_561 (+ .def_142 .def_16))) (let ((.def_562 (< .def_561 (- 1)))) (let ((.def_563 (and .def_562 .def_560))) (let ((.def_564 (not .def_563))) (let ((.def_565 (and .def_564 .def_558))) (let ((.def_566 (and .def_126 .def_156))) (let ((.def_567 (not .def_566))) (let ((.def_568 (and A0 .def_55))) (let ((.def_569 (or .def_568 .def_567))) (let ((.def_570 (or .def_569 .def_565))) (let ((.def_571 (not .def_570))) (let ((.def_572 (= A0 .def_169))) (let ((.def_573 (+ .def_151 .def_73))) (let ((.def_574 (< .def_573 1))) (let ((.def_575 (and .def_6 .def_574))) (let ((.def_576 (or .def_575 .def_572))) (let ((.def_577 (not .def_576))) (let ((.def_578 (+ .def_0 .def_24))) (let ((.def_579 (< .def_578 (- 1)))) (let ((.def_580 (+ .def_42 .def_78))) (let ((.def_581 (< .def_580 (- 1)))) (let ((.def_582 (and .def_581 .def_579))) (let ((.def_583 (< .def_24 1))) (let ((.def_584 (not .def_583))) (let ((.def_585 (or .def_3 .def_584))) (let ((.def_586 (not .def_585))) (let ((.def_587 (= .def_586 .def_582))) (let ((.def_588 (or .def_587 .def_577))) (let ((.def_589 (= .def_588 .def_571))) (let ((.def_590 (or .def_589 .def_555))) (let ((.def_591 (not .def_590))) (let ((.def_592 (and .def_591 .def_523))) (let ((.def_593 (not .def_592))) (let ((.def_594 (or .def_593 .def_455))) (let ((.def_595 (not .def_594))) (let ((.def_596 (or .def_595 .def_316))) (let ((.def_597 (<= x9 1))) (let ((.def_598 (<= 0 x9))) (let ((.def_599 (<= x8 1))) (let ((.def_600 (<= 0 x8))) (let ((.def_601 (<= x7 1))) (let ((.def_602 (<= 0 x7))) (let ((.def_603 (<= x6 1))) (let ((.def_604 (<= 0 x6))) (let ((.def_605 (<= x5 1))) (let ((.def_606 (<= 0 x5))) (let ((.def_607 (<= x4 1))) (let ((.def_608 (<= 0 x4))) (let ((.def_609 (<= x3 1))) (let ((.def_610 (<= 0 x3))) (let ((.def_611 (<= x2 1))) (let ((.def_612 (<= 0 x2))) (let ((.def_613 (<= x1 1))) (let ((.def_614 (<= 0 x1))) (let ((.def_615 (<= x0 1))) (let ((.def_616 (<= 0 x0))) (let ((.def_617 (and .def_616 .def_615 .def_614 .def_613 .def_612 .def_611 .def_610 .def_609 .def_608 .def_607 .def_606 .def_605 .def_604 .def_603 .def_602 .def_601 .def_600 .def_599 .def_598 .def_597 .def_596))) .def_617)))))))))))))))))))))))))))))))))))))))))))))))))))))))))))))))))))))))))))))))))))))))))))))))))))))))))))))))))))))))))))))))))))))))))))))))))))))))))))))))))))))))))))))))))))))))))))))))))))))))))))))))))))))))))))))))))))))))))))))))))))))))))))))))))))))))))))))))))))))))))))))))))))))))))))))))))))))))))))))))))))))))))))))))))))))))))))))))))))))))))))))))))))))))))))))))))))))))))))))))))))))))))))))))))))))))))))))))))))))))))))))))))))))))))))))))))))))))))))))))))))))))))))))))))))))))))))))))))))))))))))))))))))))))))))))))))))))))))))))))))))))))))))))))))))))))))))))))))))))))))))))))))))))))))))
(check-sat)
